21003.7
21003.7
21003.7
21003.7
20969.6
20818.4
20735.2
20544.5
20416.9
20392.7
20274
20096.6
20078
20078
19981.1
19881.7
19854.8
19842.7
19665.5
19665.5
19525.2
19292.4
19292.4
19283.3
19137.9
18899.6
18899.6
18741.7
18741.7
18741.7
18741.7
18690.7
18690.7
18690.7
18688.9
18688.9
18688.9
18688.9
18601.7
18601.7
18601.7
18601.7
18586.9
18362.1
18362.1
18362.1
18362.1
18217.4
18217.4
18217.4
18217.4
18217.4
18217.4
18217.4
18217.4
18217.4
18021.9
18021.9
18021.9
18021.9
18021.9
18005.7
18005.7
18005.7
17866.4
17866.4
17866.4
17851.8
17851.8
17851.8
17851.8
17851.8
17851.8
17851.8
17825.4
17727.6
17727.6
17560.8
17560.8
17560.8
17560.8
17560.8
17560.8
17560.8
17560.8
17560.8
17417.2
17227
17227
17227
17227
17227
17227
17227
17227
17227
17227
17227
17227
17178
